20 15 2
5 1 1 2 2 4 3 3 1 2 7 8 6 9 1 9 4 2 12 1 11 4 
7 2 2 2 1 1 1 3 4 1 5 5 2 6 7 7 8 2 10 4 9 5 2 11 4 12 2 3 13 2 14 5 15 1 
6 2 2 1 1 1 2 3 3 4 4 1 5 5 2 7 7 6 7 1 9 4 2 11 1 12 4 
5 2 2 1 1 1 2 3 2 4 1 2 6 8 7 7 1 10 2 1 11 5 
7 1 1 2 2 4 3 3 4 1 5 5 3 6 10 8 7 7 9 1 10 3 1 11 5 1 15 3 
6 2 2 2 1 3 1 3 5 1 5 3 3 7 8 8 6 6 7 1 9 4 2 12 4 11 1 
6 2 2 1 1 1 2 3 1 4 3 1 5 2 1 8 6 2 9 3 10 4 1 12 4 
6 1 1 5 2 3 5 4 5 1 5 4 2 7 6 6 6 2 9 3 10 4 1 12 4 
6 1 1 3 1 3 3 1 5 3 2 6 10 8 9 1 9 3 2 12 1 11 4 
7 1 2 3 2 3 2 4 4 1 5 1 1 7 8 1 9 3 1 12 5 1 14 2 
6 1 1 4 1 3 3 1 5 4 2 8 10 6 8 2 10 4 9 2 1 11 4 
6 2 1 4 2 2 2 4 4 3 5 1 5 4 2 7 8 8 9 2 10 3 9 1 2 11 4 12 5 
5 1 2 4 1 3 5 1 7 7 2 9 5 10 2 1 11 5 
5 2 1 5 2 2 2 4 5 3 2 1 7 8 1 9 4 2 12 2 11 1 
7 2 1 1 2 2 1 4 4 1 5 4 2 6 7 7 6 2 9 5 10 5 1 12 3 3 15 5 13 4 14 4 
6 1 2 1 1 3 3 1 5 3 2 8 10 7 9 1 10 5 2 11 1 12 5 
6 1 1 4 1 4 4 1 5 4 3 8 10 7 10 6 6 2 9 4 10 2 1 11 1 
7 1 2 4 1 3 2 1 5 3 1 8 10 1 9 5 2 12 4 11 2 1 15 1 
7 2 1 3 2 2 2 3 3 4 3 1 5 4 2 7 8 8 7 2 9 3 10 2 1 11 1 1 15 4 
7 1 2 5 1 3 3 1 5 4 2 8 8 7 8 2 9 5 10 4 2 11 5 12 5 1 13 4 
